% table generation started 2022-10-06 17:14:19
% timeout: 300000ms
Backend
	& \multicolumn{2}{c}{Gecode}
\\
	\cmidrule(lr){2-3}
instance
	& \texttt{obj} & time\\
\midrule
005\_003\_01
	& $\mathbf{-266}$	&	\textbf{662}
\\
009\_006\_03
	& $\mathbf{-264}$	&	t/o
\\
010\_008\_01
	& $\mathbf{-636}$	&	\textbf{538}
\\
012\_006\_03
	& $\mathbf{-538}$	&	\textbf{547}
\\
020\_016\_02
	& $\mathbf{1748}$	&	t/o
\\
023\_017\_03
	& $\mathbf{-1239}$	&	\textbf{64855}
\\
035\_003\_16
	& $\mathbf{-184}$	&	\textbf{585}
\\
039\_031\_04
	& $\mathbf{9343}$	&	t/o
\\
041\_035\_03
	& $\mathbf{-1653}$	&	\textbf{52272}
\\
047\_015\_16
	& $\mathbf{-1091}$	&	\textbf{25588}
\\
060\_040\_10
	& $\mathbf{-2422}$	&	\textbf{2248}
\\
071\_045\_13
	& $\mathbf{22902}$	&	t/o
\\
110\_100\_05
	& $\mathbf{10436}$	&	t/o
\\
112\_082\_15
	& $\mathbf{14611}$	&	t/o
\\
121\_111\_05
	& $\mathbf{33737}$	&	t/o
\\
162\_146\_08
	& $\mathbf{49938}$	&	t/o
\\
